objective value:                                  -87
t_x1                                                1 	(obj:-100)
t_y1_248                                            1 	(obj:1)
t_y1_165                                            1 	(obj:1)
t_y1_47                                             1 	(obj:1)
t_y1_88                                             1 	(obj:1)
t_y1_194                                            1 	(obj:1)
t_y1_218                                            1 	(obj:1)
t_y1_63                                             1 	(obj:1)
t_y1_258                                            1 	(obj:1)
t_y1_8                                              1 	(obj:1)
t_y1_19                                             1 	(obj:1)
t_y1_108                                            1 	(obj:1)
t_y1_119                                            1 	(obj:1)
t_y1_239                                            1 	(obj:1)
